%%%%%%%%%% Sudoku parameters %%%%%%%%%%
size = 9;

clue = [| 0, 0, 0,   0, 0, 0,   0, 0, 0
        | 0, 0, 0,   0, 0, 0,   0, 0, 0
        | 0, 0, 0,   0, 0, 0,   0, 0, 0

        | 0, 0, 0,   0, 0, 0,   0, 0, 0
        | 0, 0, 0,   0, 0, 0,   0, 0, 0
        | 0, 0, 0,   0, 0, 0,   0, 0, 0

        | 0, 0, 0,   0, 0, 0,   0, 0, 0
        | 0, 0, 0,   0, 0, 0,   0, 0, 0
        | 0, 0, 0,   0, 0, 0,   0, 0, 0
        |];

%%%%%%%%%% Killer parameters %%%%%%%%%%

cage_count = 0;
cage_max_length = 0;

cage_totals = [];

cage_cells =  [];

%%%%%%%%%% Thermometer parameters %%%%%%%%%%

thermo_count = 6;
thermo_max_length = 9;

thermo_cells = [| (r: 1, c: 6), (r: 1, c: 7), (r: 1, c: 8), (r: 2, c: 8), (r: 3, c: 8), (r: 4, c: 8), (r: 0, c: 0), (r: 0, c: 0), (r: 0, c: 0)
                | (r: 2, c: 6), (r: 3, c: 6), (r: 4, c: 6), (r: 4, c: 7), (r: 0, c: 0), (r: 0, c: 0), (r: 0, c: 0), (r: 0, c: 0), (r: 0, c: 0)
                | (r: 3, c: 4), (r: 2, c: 4), (r: 2, c: 3), (r: 2, c: 2), (r: 3, c: 2), (r: 4, c: 2), (r: 5, c: 2), (r: 5, c: 3), (r: 5, c: 4)
                | (r: 6, c: 4), (r: 7, c: 4), (r: 8, c: 4), (r: 8, c: 3), (r: 8, c: 2), (r: 7, c: 2), (r: 0, c: 0), (r: 0, c: 0), (r: 0, c: 0)
                | (r: 7, c: 6), (r: 8, c: 6), (r: 9, c: 6), (r: 0, c: 0), (r: 0, c: 0), (r: 0, c: 0), (r: 0, c: 0), (r: 0, c: 0), (r: 0, c: 0)
                | (r: 9, c: 7), (r: 9, c: 8), (r: 8, c: 8), (r: 7, c: 8), (r: 6, c: 8), (r: 6, c: 7), (r: 6, c: 6), (r: 0, c: 0), (r: 0, c: 0)
                |];

GW_count = 0;
GW_max_length = 0;

GW_cells = []